(declare-const a Real)
(declare-const b Real)
(declare-const c Real)
(declare-const d Real)
(assert (= (+ (* a b) (* a d) (* b c) (* c d)) 1))
(assert (> a 0))
(assert (> b 0))
(assert (> c 0))
(assert (> d 0))
(assert (not (<= (+ (* (/ 1 18) (pow c 2)) (* (/ 2 3) (pow b 2)) (* (/ 37 72) (pow a 2)) (* -1 (pow a 3) (pow (+ b c d) -1)) (* -1 (pow b 3) (pow (+ a c d) -1)) (* -1 (pow c 3) (pow (+ a b d) -1)) (* -1 (pow d 3) (pow (+ a b c) -1)) (* (/ 1 3) a d) (* (/ 1 3) c d)) 0)))
(check-sat)
(get-model)
(exit)